words_hard_train/653.qaiger
aag 190 23 0 1 167
2
4
8
16
24
38
58
66
80
100
108
122
142
150
164
184
192
206
244
246
254
264
280
381
6 2 4
10 7 8
12 3 5
14 10 13
18 4 16
20 5 17
22 19 21
26 23 25
28 22 24
30 27 29
32 7 31
34 6 30
36 33 35
40 8 38
42 9 39
44 41 43
46 37 45
48 36 44
50 47 49
52 14 50
54 53 49
56 35 29
60 21 58
62 20 59
64 61 63
68 65 67
70 64 66
72 69 71
74 56 73
76 57 72
78 75 77
82 43 80
84 42 81
86 83 85
88 79 87
90 78 86
92 89 91
94 55 92
96 95 91
98 77 71
102 63 100
104 62 101
106 103 105
110 107 109
112 106 108
114 111 113
116 98 115
118 99 114
120 117 119
124 85 122
126 84 123
128 125 127
130 121 129
132 120 128
134 131 133
136 97 134
138 137 133
140 119 113
144 105 142
146 104 143
148 145 147
152 149 151
154 148 150
156 153 155
158 140 157
160 141 156
162 159 161
166 127 164
168 126 165
170 167 169
172 163 171
174 162 170
176 173 175
178 139 176
180 179 175
182 161 155
186 147 184
188 146 185
190 187 189
194 191 193
196 190 192
198 195 197
200 182 199
202 183 198
204 201 203
208 169 206
210 168 207
212 209 211
214 205 213
216 204 212
218 215 217
220 180 219
222 181 218
224 221 223
226 225 184
228 224 185
230 227 229
232 138 177
234 233 179
236 234 143
238 235 142
240 237 239
242 230 240
248 244 246
250 245 247
252 249 251
256 210 255
258 252 257
260 253 256
262 259 261
266 188 265
268 263 267
270 262 266
272 269 271
274 203 197
276 189 264
278 277 267
282 279 281
284 278 280
286 283 285
288 275 286
290 289 285
292 272 290
294 273 291
296 293 295
298 223 217
300 274 287
302 301 289
304 211 254
306 305 257
308 303 307
310 302 306
312 309 311
314 299 312
316 315 311
318 297 317
320 242 319
322 96 135
324 323 137
326 324 101
328 325 100
330 327 329
332 54 93
334 333 95
336 335 58
338 334 59
340 337 339
342 3 8
344 2 9
346 343 345
348 15 51
350 349 53
352 351 17
354 350 16
356 353 355
358 346 357
360 340 358
362 330 360
364 320 362
366 298 313
368 367 315
370 368 264
372 369 265
374 371 373
376 296 316
378 375 377
380 364 378
i0 2 y1[0]
i1 1 x1[0]
i2 1 x2[0]
i3 1 x1[1]
i4 2 y1[1]
i5 1 x2[1]
i6 1 x1[2]
i7 2 y1[2]
i8 1 x2[2]
i9 1 x1[3]
i10 2 y1[3]
i11 1 x2[3]
i12 1 x1[4]
i13 2 y1[4]
i14 1 x2[4]
i15 1 x1[5]
i16 2 y1[5]
i17 1 x2[5]
i18 2 y1[7]
i19 1 x2[7]
i20 1 x2[6]
i21 1 x1[6]
i22 2 y1[6]
o0 bool[0]
c
simplified
  !=
    add
      subtract
        2 y1
        1 x1
      unary minus
        1 x2
    1 x1
