words_hard_train/653.qaiger.qdimacs
p cnf 190 502
a 2 4 132 71 8 40 103 50 19 61 82 123 92 29 127 0
e 1 3 5 6 7 9 10 11 12 13 14 15 16 17 18 20 21 22 23 24 25 26 27 28 30 31 32 33 34 35 36 37 38 39 41 42 43 44 45 46 47 48 49 51 52 53 54 55 56 57 58 59 60 62 63 64 65 66 67 68 69 70 72 73 74 75 76 77 78 79 80 81 83 84 85 86 87 88 89 90 91 93 94 95 96 97 98 99 100 101 102 104 105 106 107 108 109 110 111 112 113 114 115 116 117 118 119 120 121 122 124 125 126 128 129 130 131 133 134 135 136 137 138 139 140 141 142 143 144 145 146 147 148 149 150 151 152 153 154 155 156 157 158 159 160 161 162 163 164 165 166 167 168 169 170 171 172 173 174 175 176 177 178 179 180 181 182 183 184 185 186 187 188 189 190 0
-1 -2 3 0
1 -3 0
2 -3 0
3 -4 5 0
-3 -5 0
4 -5 0
1 2 6 0
-1 -6 0
-2 -6 0
-5 6 7 0
5 -7 0
-6 -7 0
-2 -8 9 0
2 -9 0
8 -9 0
2 8 10 0
-2 -10 0
-8 -10 0
9 10 11 0
-9 -11 0
-10 -11 0
11 12 13 0
-11 -13 0
-12 -13 0
-11 -12 14 0
11 -14 0
12 -14 0
13 14 15 0
-13 -15 0
-14 -15 0
3 15 16 0
-3 -16 0
-15 -16 0
-3 -15 17 0
3 -17 0
15 -17 0
16 17 18 0
-16 -18 0
-17 -18 0
-4 -19 20 0
4 -20 0
19 -20 0
4 19 21 0
-4 -21 0
-19 -21 0
20 21 22 0
-20 -22 0
-21 -22 0
18 22 23 0
-18 -23 0
-22 -23 0
-18 -22 24 0
18 -24 0
22 -24 0
23 24 25 0
-23 -25 0
-24 -25 0
-7 -25 26 0
7 -26 0
25 -26 0
26 24 27 0
-26 -27 0
-24 -27 0
17 14 28 0
-17 -28 0
-14 -28 0
10 -29 30 0
-10 -30 0
29 -30 0
-10 29 31 0
10 -31 0
-29 -31 0
30 31 32 0
-30 -32 0
-31 -32 0
32 33 34 0
-32 -34 0
-33 -34 0
-32 -33 35 0
32 -35 0
33 -35 0
34 35 36 0
-34 -36 0
-35 -36 0
-28 36 37 0
28 -37 0
-36 -37 0
28 -36 38 0
-28 -38 0
36 -38 0
37 38 39 0
-37 -39 0
-38 -39 0
21 -40 41 0
-21 -41 0
40 -41 0
-21 40 42 0
21 -42 0
-40 -42 0
41 42 43 0
-41 -43 0
-42 -43 0
39 43 44 0
-39 -44 0
-43 -44 0
-39 -43 45 0
39 -45 0
43 -45 0
44 45 46 0
-44 -46 0
-45 -46 0
27 -46 47 0
-27 -47 0
46 -47 0
47 45 48 0
-47 -48 0
-45 -48 0
38 35 49 0
-38 -49 0
-35 -49 0
31 -50 51 0
-31 -51 0
50 -51 0
-31 50 52 0
31 -52 0
-50 -52 0
51 52 53 0
-51 -53 0
-52 -53 0
53 54 55 0
-53 -55 0
-54 -55 0
-53 -54 56 0
53 -56 0
54 -56 0
55 56 57 0
-55 -57 0
-56 -57 0
-49 57 58 0
49 -58 0
-57 -58 0
49 -57 59 0
-49 -59 0
57 -59 0
58 59 60 0
-58 -60 0
-59 -60 0
42 -61 62 0
-42 -62 0
61 -62 0
-42 61 63 0
42 -63 0
-61 -63 0
62 63 64 0
-62 -64 0
-63 -64 0
60 64 65 0
-60 -65 0
-64 -65 0
-60 -64 66 0
60 -66 0
64 -66 0
65 66 67 0
-65 -67 0
-66 -67 0
48 -67 68 0
-48 -68 0
67 -68 0
68 66 69 0
-68 -69 0
-66 -69 0
59 56 70 0
-59 -70 0
-56 -70 0
52 -71 72 0
-52 -72 0
71 -72 0
-52 71 73 0
52 -73 0
-71 -73 0
72 73 74 0
-72 -74 0
-73 -74 0
74 75 76 0
-74 -76 0
-75 -76 0
-74 -75 77 0
74 -77 0
75 -77 0
76 77 78 0
-76 -78 0
-77 -78 0
-70 78 79 0
70 -79 0
-78 -79 0
70 -78 80 0
-70 -80 0
78 -80 0
79 80 81 0
-79 -81 0
-80 -81 0
63 -82 83 0
-63 -83 0
82 -83 0
-63 82 84 0
63 -84 0
-82 -84 0
83 84 85 0
-83 -85 0
-84 -85 0
81 85 86 0
-81 -86 0
-85 -86 0
-81 -85 87 0
81 -87 0
85 -87 0
86 87 88 0
-86 -88 0
-87 -88 0
69 -88 89 0
-69 -89 0
88 -89 0
89 87 90 0
-89 -90 0
-87 -90 0
80 77 91 0
-80 -91 0
-77 -91 0
73 -92 93 0
-73 -93 0
92 -93 0
-73 92 94 0
73 -94 0
-92 -94 0
93 94 95 0
-93 -95 0
-94 -95 0
95 96 97 0
-95 -97 0
-96 -97 0
-95 -96 98 0
95 -98 0
96 -98 0
97 98 99 0
-97 -99 0
-98 -99 0
-91 99 100 0
91 -100 0
-99 -100 0
91 -99 101 0
-91 -101 0
99 -101 0
100 101 102 0
-100 -102 0
-101 -102 0
84 -103 104 0
-84 -104 0
103 -104 0
-84 103 105 0
84 -105 0
-103 -105 0
104 105 106 0
-104 -106 0
-105 -106 0
102 106 107 0
-102 -107 0
-106 -107 0
-102 -106 108 0
102 -108 0
106 -108 0
107 108 109 0
-107 -109 0
-108 -109 0
-90 109 110 0
90 -110 0
-109 -110 0
90 -109 111 0
-90 -111 0
109 -111 0
110 111 112 0
-110 -112 0
-111 -112 0
112 -92 113 0
-112 -113 0
92 -113 0
-112 92 114 0
112 -114 0
-92 -114 0
113 114 115 0
-113 -115 0
-114 -115 0
-69 88 116 0
69 -116 0
-88 -116 0
116 89 117 0
-116 -117 0
-89 -117 0
-117 71 118 0
117 -118 0
-71 -118 0
117 -71 119 0
-117 -119 0
71 -119 0
118 119 120 0
-118 -120 0
-119 -120 0
-115 -120 121 0
115 -121 0
120 -121 0
-122 -123 124 0
122 -124 0
123 -124 0
122 123 125 0
-122 -125 0
-123 -125 0
124 125 126 0
-124 -126 0
-125 -126 0
-105 127 128 0
105 -128 0
-127 -128 0
-126 128 129 0
126 -129 0
-128 -129 0
126 -128 130 0
-126 -130 0
128 -130 0
129 130 131 0
-129 -131 0
-130 -131 0
-94 132 133 0
94 -133 0
-132 -133 0
131 133 134 0
-131 -134 0
-133 -134 0
-131 -133 135 0
131 -135 0
133 -135 0
134 135 136 0
-134 -136 0
-135 -136 0
101 98 137 0
-101 -137 0
-98 -137 0
94 -132 138 0
-94 -138 0
132 -138 0
138 133 139 0
-138 -139 0
-133 -139 0
139 140 141 0
-139 -141 0
-140 -141 0
-139 -140 142 0
139 -142 0
140 -142 0
141 142 143 0
-141 -143 0
-142 -143 0
137 -143 144 0
-137 -144 0
143 -144 0
144 142 145 0
-144 -145 0
-142 -145 0
-136 -145 146 0
136 -146 0
145 -146 0
136 145 147 0
-136 -147 0
-145 -147 0
146 147 148 0
-146 -148 0
-147 -148 0
111 108 149 0
-111 -149 0
-108 -149 0
-137 143 150 0
137 -150 0
-143 -150 0
150 144 151 0
-150 -151 0
-144 -151 0
105 -127 152 0
-105 -152 0
127 -152 0
152 128 153 0
-152 -153 0
-128 -153 0
151 153 154 0
-151 -154 0
-153 -154 0
-151 -153 155 0
151 -155 0
153 -155 0
154 155 156 0
-154 -156 0
-155 -156 0
149 -156 157 0
-149 -157 0
156 -157 0
157 155 158 0
-157 -158 0
-155 -158 0
148 158 159 0
-148 -159 0
-158 -159 0
-121 159 160 0
121 -160 0
-159 -160 0
-48 67 161 0
48 -161 0
-67 -161 0
161 68 162 0
-161 -162 0
-68 -162 0
-162 50 163 0
162 -163 0
-50 -163 0
162 -50 164 0
-162 -164 0
50 -164 0
163 164 165 0
-163 -165 0
-164 -165 0
-27 46 166 0
27 -166 0
-46 -166 0
166 47 167 0
-166 -167 0
-47 -167 0
167 -29 168 0
-167 -168 0
29 -168 0
-167 29 169 0
167 -169 0
-29 -169 0
168 169 170 0
-168 -170 0
-169 -170 0
1 -4 171 0
-1 -171 0
4 -171 0
-1 4 172 0
1 -172 0
-4 -172 0
171 172 173 0
-171 -173 0
-172 -173 0
7 25 174 0
-7 -174 0
-25 -174 0
174 26 175 0
-174 -175 0
-26 -175 0
175 8 176 0
-175 -176 0
-8 -176 0
-175 -8 177 0
175 -177 0
8 -177 0
176 177 178 0
-176 -178 0
-177 -178 0
-173 178 179 0
173 -179 0
-178 -179 0
-170 -179 180 0
170 -180 0
179 -180 0
-165 -180 181 0
165 -181 0
180 -181 0
-160 -181 182 0
160 -182 0
181 -182 0
-149 156 183 0
149 -183 0
-156 -183 0
183 157 184 0
-183 -184 0
-157 -184 0
-184 -132 185 0
184 -185 0
132 -185 0
184 132 186 0
-184 -186 0
-132 -186 0
185 186 187 0
-185 -187 0
-186 -187 0
-148 -158 188 0
148 -188 0
158 -188 0
187 188 189 0
-187 -189 0
-188 -189 0
-182 -189 190 0
182 -190 0
189 -190 0
-190 0
